15 40
25
2 11 7 11
2 3 9 11
7 10 0 8
4 8 0 0
5 9 2 18
2 7 4 32
4 1 11 2
6 1 0 39
5 4 4 28
3 8 8 0
3 1 4 27
5 5 6 35
3 1 6 34
4 12 0 27
2 6 7 22
4 2 11 0
4 11 11 29
2 10 9 25
2 3 0 18
2 11 9 14
4 3 7 8
4 26 11 3
4 8 4 0
3 2 6 32
2 6 0 21
